
 102   30
  10   10   10   10   10   10   10   10   10   10   10   10   10   10   10   10   10   10   10   10   10   10   10   10   10   10   10   10   10   10

   0   0   0   0   0   0   0   0   0   0   0   0   0   0   0   0   0   0   0   0   0   0   0   0   0   0   0   0   0   0   0  26 2 3 4 5 6 7 8 9 10 11 12 13 14 15 16 17 18 19 22 23 24 25 26 28 37 48 
   9   0   0   2   0   0   1   0   0   0   2   0   0   0   0   0   0   4   0   2   2   0   0   0   0   0   0   0   0   0   0  14 100 97 61 56 53 49 47 45 43 40 39 30 29 27 
   1   0   0   0   1   0   0   0   1   0   0   0   0   0   0   0   0   0   0   0   0   0   0   0   0   0   0   1   0   0   0  18 100 99 98 65 61 60 56 53 49 47 45 44 43 40 36 34 33 31 
   5   0   0   0   0   1   0   0   0   0   0   0   0   0   0   0   1   0   0   0   0   1   0   0   2   0   0   0   0   0   0  15 100 99 98 67 64 56 52 51 50 47 44 40 39 36 20 
   7   0   0   0   3   0   0   0   0   0   0   0   0   0   0   1   0   0   0   0   0   6   0   0   0   0   0   0   0   0   0  21 101 100 99 96 71 70 68 65 64 62 60 59 58 49 45 44 43 40 39 36 34 
   6   0   0   0   0   0   0   0   0   0   0   0   0   0   4   0   0   0   0   5   0   7   0   0   0   0   0   0   0   0   0  12 100 97 62 57 55 50 49 44 43 41 36 21 
   3   0   2   0   0   0   0   0   0   0   6   0   0   0   0   6   0   0   0   0   0   0   1   0   0   0   0   0   0   0   0  15 100 96 95 70 62 58 55 54 53 52 49 40 39 35 34 
   9   0   0   4   0   6   0   0   0   0   0   0   0   0   0   0   0   0   0   0   0   0   0   0   0   0   0   0   0   2   0  12 101 97 68 65 61 60 59 57 55 45 42 29 
  10   0   0   0   0   6   0   0   0   0   0   0   0   0   0   0   0   0   0   0   0   0   4   0   0   0   0   0   0   0   0  15 100 97 92 69 68 67 64 58 52 51 50 49 43 40 32 
   8   0   4   0   0   0   6   0   0   1   0   0   1   0   0   0   8   5   0   0   0   0   0   0   0   3   0   0   0   0   0  19 100 99 96 95 93 91 71 69 68 63 57 56 55 54 53 52 51 49 34 
   5   0   0   0   0   0   0   0   0   0   0   0   0   0   0   0   2   0   0   0   0   0   0   0   0   0   0   0   0   0   1  20 100 99 97 95 91 90 71 70 69 68 65 63 62 61 56 55 53 49 38 36 
   6   0   7   0   0   4   0   0   8   0   0   0   0   0   0   0   0   5   0   0   0   0   0   0   0   0   0   8   0   0   6  18 100 99 97 96 93 89 70 64 63 59 58 57 56 55 52 49 46 36 
   7   0   0   0   0   0   2   0   0   0   0   0   0   1   0   0   0   0   0   0   0   0   0   0   0   0   0   0   0   0   0  19 101 100 98 97 96 94 92 90 70 69 64 63 62 61 54 49 46 43 41 
   3   0   6   0   0   8   0   0   0   0   0   3   0   0   3   7   0   0   0   0   0   0   0   0   6   0   0   0   1   8   0  20 101 100 99 95 93 92 89 84 70 69 67 66 65 61 59 56 53 49 45 40 
   8   0   0   0   0   0   0   0   5   0   0   0   0   0   0   9   0   8   0   0   0   0   8   0   0   0   0   0   0   0   0  19 101 97 94 93 92 77 70 69 68 66 65 64 63 62 61 58 57 49 46 
   3   0   0   0   0   0   7   1   0   0   0   0   0   0   7   0   8   0   0   0   0   0   0   0   0   0   0   0   0   0   0  19 99 98 97 96 93 90 85 70 68 64 63 62 61 57 56 52 49 40 38 
   9   0   0   0   5   0   0   0   0   6   0   0   0   0  10   0   0   0   0   0   0   0   0   0   0   0   0   0  10   0  10  18 98 96 93 92 91 90 89 86 69 63 62 61 56 54 53 52 50 43 
   5   0   0   6   0   0   0   0   0   0   6   0   0   0   0   0   0   0   0   0   0   0   0   0   0   0   0   3   5   0   0  17 101 100 99 96 90 89 85 71 70 67 66 65 64 50 49 40 39 
   4   0   0   0   0   0   0   0   0   0   0   7   0   0   0   0   0   0   2   0   9   0   0   1   6   0   0   0   0   0   0  16 100 98 96 93 91 90 88 71 69 68 64 61 57 56 52 36 
   7   0  10   0  10   6   0   0   4   0   0   0   7   0   0   6   0   0   0   0   0   0   0   0   0   0   0   0   0   0   0  15 101 96 95 93 91 85 84 69 68 65 62 61 54 49 34 
   9   0   0   0   0   0   0   0   0   0   0   0   0   0   8   0   0   0   0   0   0   0   0  10   0   0   0   0   0   0   0  15 101 99 98 96 95 91 83 79 71 69 66 64 56 45 38 
   6   0   7   0   0   7   0   0   0   0   0   0   0   7   0   0   4   0   0   7   0   0   9   0   0   0   0   3   0   0   7  15 100 98 95 94 93 91 90 67 65 64 61 60 56 43 38 
   7   0   0   0   0   0   0   0   0   4   0   0   5   0   0   0   0   2   0   0   0   0   0   0   0   3   1   0   0   0   0  16 98 97 96 92 90 86 83 78 69 64 63 62 56 50 46 43 
  10   0   0   0   0   0  10   0   0   0   0   0   0   0   0   5   0   0   0   0   0   0   7   0   0   0   0   0   0   0   0  17 99 97 95 93 91 90 89 84 82 71 67 66 63 62 53 52 49 
   6   0   9   0   0   0   0   0   0   7   0   0   0   0   0   0   0   0   0   0   0   0   0   0   0   0   0   0   0   0   0  13 101 99 95 93 92 71 68 64 63 55 54 52 43 
   3   0   6   0   0   0   0   0   0   0   0   7   0   0   0   0   0   3   4   0   0   0   0   6   0   0   0   0   0   0   0  17 100 97 95 93 92 91 90 89 86 83 82 78 67 61 54 53 43 
   8   0   0   0   8   0   0   0   0   0   0   0   0   0   0   9   0   3   0   0   0   0   0   0   0   0   0   0   0   6   0  16 99 95 93 91 90 88 83 82 79 78 73 68 67 66 63 36 
   2   0   0   0   0   0   9   0   0   0   0   0  10   0   0   0   9   0   0   0   0   0   0   0   0   0   0   0   0   0   7  21 100 99 96 94 93 92 91 90 89 88 87 85 84 82 81 78 70 69 63 54 53 
   9   0   0  10   0   0   8   0   0   0   6   0  10   0   0   0   0   0   0   0   0   6   0   0   9   0   0   7   0   0   0  12 96 93 91 88 83 78 71 70 64 63 58 36 
   2   0   0   0   0   0   2   0   0   0   0  10   0   0   0   0   0   0   0   7   0   0   0   0   0   8   0   0   0   7   0  13 101 93 91 90 85 84 70 67 63 59 57 54 52 
   1   0   6   0   0   0   0   6   0   0   0   0   0   0   0   0   0   0   0   0   0   0   0   0   0   6   0   9   0   0   0  10 97 87 80 77 74 68 66 64 55 39 
   4   0   0   0   0   0   5   0   0   0   0   7   0   0   6   0   5   0   0   0   0   0   5   8   0   0   0   0   0   0   0  15 101 96 94 93 90 83 82 81 78 77 74 73 70 63 62 
   7   0   0   7   0   0   0   0   0   0   9   0   0   8   0   0  10   0   0   0   0   0   0   0   0   0   0   0   0   0   0  15 94 93 90 88 85 80 79 77 76 74 72 69 68 67 63 
  10   0   0   0   0  10   0   0   8   0   0   0   0   0   0   0   0   0   0   0   0   0   4   0   0   0   0   0   0   0   0  17 97 94 92 90 88 87 86 83 82 81 80 79 76 75 74 73 66 
   3   0   0   0   9   0   0   0   0   0   0   5   0   0   0   0   0   0   0   0   0   0   0   0   0   0   0   0   0   0   0  12 99 88 87 86 83 79 78 76 74 68 63 56 
   7   0   0   0   0   0   0   7   0   0   0   0   0   0   0   0   3   0   0   0   0   0   0   0   0   0   0   5   0   8   0   9 94 92 87 86 85 84 81 75 54 
   7   1   6   6   7   7   0   0   0   0   0   0   4   0   0   7   0   0   0   0   0   6   0   0   0   8   0   7   0   0   0   7 93 85 84 80 75 68 52 
   7   0   0   0   0   0   0   0   0   0   0   0   0   0   0   0   0   0   0   0   6   0   0   0   0   0   0   0   0   7   0  13 92 89 88 87 86 84 82 81 78 77 76 75 72 
   9   0   0   0   0   0   6   0   0   0   0   0   5   8   4   0   0   0   6   0   0   0   4   0   3   0   0   0   0   0   5  12 93 91 88 84 83 82 81 79 78 76 72 63 
   7   0   0   0   0   0   0   0   0   0   0   0   0   0   0   0   0   0   0   0   0   0   0   0   0   0   0  10   0   0   0  12 94 91 88 86 83 82 80 78 77 75 74 73 
   9   0   0   0   0   0   0   8   0   0   0   0   5   0   0   0   0  10   0   0   0   0   0   0   0   0   0   0   0   0   0  11 89 88 87 85 84 82 81 76 73 72 65 
  10   0   7   0   7   0   0   6   0   0   0   0   0   0   0   0   0   5   0   0   0   0   0   0   0   0   0   0   0   0   0  11 95 92 84 83 82 80 79 78 74 73 66 
  10   0   0   0   0   0   0   0   0   0   0   0   0   0   0   4   0   0   0   0   0   0   0   0   0   0   0   0   0   0   0   9 87 85 84 79 77 75 74 73 66 
  10   0   0   0   0   0   5   0   0   0   0   0   0   0   0   0   0   0   0   0   3   0   0   0   0   0   0   0   0   0   0   9 95 86 85 84 80 78 76 74 69 
   2   0   8   0   0   0   0   0   0   0   0   8   0   0   0   0   0   0   0   0   0   0   0   0   0   0   0   0   8   0   0   8 94 90 88 85 77 74 73 63 
  10   0   0   0   0   0   0   0   0   0   0   0   0   0   0   0   4   0  10   5   0   0   6   0   0   0   0   0   5   4   0   8 95 91 85 79 76 73 72 67 
   1   0   0   0   0   0   0  10   0   0   0   0   0   0   0   9   0   0   0   3   0   0   0   0   0   0   0   0   0   7   0   8 91 89 82 80 78 77 74 72 
   1   0   0   0   0   0   0   0   0   0   0   0   3   0   6   0   0   5   0   0   0   0   0   0   0   0   0   0   0   0   0   6 81 76 74 72 71 63 
  10   7   0   0   0   0   0   7   0   0   0   0   0   0   0   0   0   0   0   0   0   0   0   0   4   0   0   0   0   6   0   7 87 86 83 80 78 74 73 
   4   0   0   0   0   0  10   0   0   7   0   0   0   0   0   0   0   0   9   0   0   0   0   0   0   7   0   0   0   0   0   6 95 82 75 74 73 72 
   9   0   0   0   0   0   0   0   0   0   0   4   0   0   0   0   0   0   4   0   0   0   0   6   7   0   0   0   0   0   0   6 87 84 77 75 74 72 
   9   5   0   0   0   0   0   0   0   0   0   0   0   0   0   0   0   0   0   0   0   0   0   6   0   0   0   0   7   0   0   5 79 78 73 72 65 
   3   0   0   7   1   0   0   8   0   0   7   0   0   0   0   7   0   0   0   0   0   0   0   0   0   0   0   5   0   0   0   5 79 77 76 75 64 
   2   0   0   0   0   0   0   0   0   0   0   0   0   0   0   0   0   0   0  10   0   6   0   0   0   8   0   0   5   0   0   5 80 77 76 74 72 
   1   0   0   0   0   0   0   0   0   0   0   0   0   0   7   0   0  10   0   0   0   0   6   0   0   0   0   0   0   0   0   4 85 83 76 67 
   4   0   0   0   0   0   0   0   0   0   0   0   8   0   3   4   0   0   0   0   0   0   0   5   0   0   5   0   0   6   0   4 80 77 75 72 
   9   0   0   0   0   0   9   0   0   0   0   0   0   6   0   0   5   0   0   0   0   0   0   0   0   0   0   0   0   0   0   4 82 79 73 72 
   1   0   0   6   0   0   0   0   0   0   0   0   0   9   0   0   0   0   0   0   0   0   0   0   0   0   0   0   0   0   0   4 98 90 84 82 
   5   0   1   0   0   0   0  10   0   0   0   0   0   0   0   0   0   0   0   0   0   0   0   0   5   0   0   0   0   2   0   4 86 82 77 74 
   1   0   0   4   0   0   0   0   0   0   0   0   0   0   0   0   0   0   4   0   6   0   0   4   0  10   0   0   0   0   0   4 89 78 74 72 
  10   0   0   0   0   0   0   0   0   0   0   0   0   0   0   0   0   0   0   0   0   0   0   0   0   0   0   0   0   7   0   3 81 75 73 
   1   0   0   6   0   0   0   0   0   0   0   4   0   0   0   0   0   0   0   0   0   0   0   0   0   0   0   0   0   0   0   3 88 79 72 
   7   0   0   0   0   0   5   0   0   0   0   0   0   0   0   0   4  10   0   6   0   0   0   0   0  10   0   0   0   6   0   1 75 
   8   0   0   0   0   6   0   0   0   6   0   0   0   0   0   0   5   0   0   0   0   0   9   8   0   0   0   0   0   0   0   1 73 
   8   0   0   0   0   0   0   0   0   0   3   0   5   5   0   0   0   0   0   0  10   0   0   6   0   0   5   0   0   0   0   1 83 
   7   0   0   0   5   0   0   0   0   0   0   0   0   0   0   0   0   0   0   0   0   0   0   0   0   0   0   0   0   0   0   1 72 
   6   9   0   0   0   0   0   0   0   0   0   0   0   0   0   0   0   6  10   6   0   0   0   0   0   0   0   0   0   0   0   1 81 
   9   0   0   0   0   0   0   0   0   0   0   0   0   0   0   0  10   0   0   0   0   0   0   0   0   0   0   0   3   0   9   1 89 
   1   0   0   0   0   0   0   3   0   0   0   5   0   0   0   0   0   0   0   0   0   0   0   0   0   0   0   0   0   0   0   1 73 
   6   7   0   0   0   0   3   0   0   0   0   0   0   0   0   0   0   0   0   0   0   0   0   0   0   6   0   0   0   0   0   1 76 
   9   0   0   0   0   0  10   0   0   0   0   0   0   0   0   0   9   9   0   0   0   0   0   0   0   0   0   0   0   0   0   1 86 
   9   0   0   0   0   0   0   0   0   0   0   0   0   0   0   0   0   0   0   0   0   0   6   0   0   0   0   0   0   0   0   1 102
   6   6   0  10   9   4   0   0   0   0   0   0   0   0   0   0   0   0   0   0   0   0   0   0   0   5   0   0   6   5   0   1 102
   1   0   8   0   8   0   0   0   0   0   0   5   0   0   0   0   0   0   0   0   0   0   0   7   8   0   0   0   0   5   5   1 102
   3   0   0   0   0   0   4   0   0   0   0   9   5   3   0   0   0   0   0   0   0   0   0   0   6   0   0   0   0   0   0   1 102
   3   0   0   0   0   0   0   0   0   0  10   0   8   0   0   0   0   0   8   0   0   0   0   0   0   0   0   0   0   0   0   1 102
   8   0   0   0   0   0   0   0   0   9   0   0   0   0   0   0   0   0   0   0   0   0   0   0   0   0   0   0   0   0   0   1 102
   2   0   0   0   0   0   0   0   0   0   0   4   0   0   0   0   0   0   6   0   0   0   0   0   6   4   0   0   0   0   0   1 102
   4   0   5   0   0   0   0   5   0   0   0   0   8   0   0   9   0   0   0   0   2   0   0   0   0   0   0   0   0   0   0   1 102
   4   0   0   0   0   0   0   0   0   0   0   0   0   0   0   0   0   0   0   0   0   0   7   0   0   0   0   0   0   0   0   1 102
   8   0   0   0   0   0   0   0   0   0   7   0   0   0   0   0   7   0   3   0   0   0   0   0   0   0   0   0   0   0   0   1 102
   4   0   3   0   0   0   0   4   0   0   0   0   0   0   0   0   0   0   0   0   8   0   0   0   0   0   0   0   0   0   0   1 102
   6   0   0   0   7   0   0   0   0   0   0   5   0   0   0   0   0   0   0   0   0   0   7   0   0   0   0   5   0   0   0   1 102
   3   0   0   0   0   3   0   0   0   0   0   0   0   6   0   0   0   0   0   0   0   0   0   0   6   0   0   0   0   0   6   1 102
  10   0   0   0   0   8   0   0   0   0   0   0   0   0   0   5   0   0   0   0   0   0   0   5   0   4   0   0   0   0   0   1 102
   7   0   0   0   0   0   0   0   0   0   0   0   0   0   0   0   0   0   0   0   0   0   0   0   0   0   0   0   0   0   0   1 102
   6   0   0   0   0   0   0   3   0   6   0   0   0   0   5   0   0   0   0   8   0   0   0   0   0   0   0   0   0   0   0   1 102
   9   0   0   0   0   0   0   0   0   0   0   0   0   0   0   7   0   0   0   0   0   0   0   0   0   0   0   0   0   0   0   1 102
   3   7   0   3   0   0   0   0   0   5   0   0   0   7   0   0   0   0   0   0   0   0   0   0   6   0   0   0   0   0   0   1 102
   9   0   0   0   0   4   0   0   0   4   0   0   0   0   0   4   0   0   0   7   0   0   0   0   0   0   0   5   0   0   0   1 102
   8   0   0   0   0   7   0   0   0   0   0   0   0   0   0   0   0   0   0   9   0   0   7   0   0   3   9   0   0   0   0   1 102
   3   0   0   4   0   9   0   0   0   7   0   0   0   0   0   0   0   0   0   0   0   0   0   0   0   8   0   0   0   0   0   1 102
   8   0   0   0   0   0   0   0   0   0   0   0   0   0   0   0   0   0   0   0   0   0   0   0   0   0   0   6   0   0   0   1 102
   1   0   0   0   0   0   0   0   0   0   5   0   0   0   0   0   0   0   0   5   0   0   0   0   0   0   0   0   0   0   0   1 102
   6   0   0  10   0   0   0   0   0   0   0   0   0   0   0   3   0   0   0   0   0  10   0   0   0   7   0   0   8  10   0   1 102
   6   0   7   0   4   0   0   0   0   0   0   7   0   0   0   0   0   0   0   3   6   0   0   0   0   0   0  10   0   0   0   1 102
  10   0   0   0   0   0   0   0   0   0   0   0   0   0   0   0   9   0   0   7   0   0   0   0   0   0   0   0   0   0   0   1 102
   4   0   0   0   0   0   0   0   0   7   0   0   0   0   0   0   5   5   0   0   8   0   0   0   0   2   0   0   8   0   0   1 102
   7   0   0   5   0   0   0   0   0   0   5   0   0   0   9   0   0   0   0   0   0   0   0   0   0   0   0   0   0   0   0   1 102
   6   0   0   0   0   6   0   0  10   8   0   0   0   0   0   0   0   0   0   0   0   0   0   0   0   0   0   0   0   0   0   1 102
   5   0   0   0   0   0   0   0   0   7   0   0   0   0   0   0   0   0   0   0   0   0   0   0  10   6  10   0   0   0   4   1 102
   0   0   0   0   0   0   0   0   0   0   0   0   0   0   0   0   0   0   0   0   0   0   0   0   0   0   0   0   0   0   0   0 
